\* Problem: Unknown *\

Maximize
 obj: + xp_0_0 + xp_0_1 + xp_0_2 + xp_0_3 + xp_0_4 + xp_0_5 + xp_0_6
 + xp_0_7 + xp_0_8 + xp_1_0 + xp_1_1 + xp_1_2 + xp_2_0 + xp_2_1 + xp_2_2
 + xp_2_3 + xp_2_4 + xp_3_0 + xp_3_1 + xp_3_2 + xp_3_3 + xp_3_4 + xp_4_0
 + xp_5_0 + xp_5_1 + xp_5_2 + xp_6_0 + xp_6_1 + xp_6_2 + xp_7_0 + xp_7_1
 + xp_8_0 + xp_8_1 + xp_9_0 + xp_10_0 + xp_10_1 + xp_11_0 + xp_11_1
 + xp_11_2 + xp_11_3 + xp_12_0 + xp_13_0 + xp_13_1 + xp_14_0 + xp_14_1
 + xp_14_2 + xp_15_0 + xp_16_0 + xp_16_1 + xp_17_0 + xp_17_1 + xp_17_2
 + xp_17_3 + xp_17_4 + xp_17_5 + xp_18_0 + xp_18_1 + xp_18_2 + xp_18_3
 + xp_18_4 + xp_19_0 + xp_19_1 + xp_19_2 + xp_19_3 + xp_19_4 + xp_19_5
 + xp_19_6 + xp_20_0 + xp_20_1 + xp_20_2 + xp_20_3 + xp_21_0 + xp_21_1
 + xp_21_2 + xp_21_3 + xp_21_4 + xp_22_0 + xp_22_1 + xp_22_2 + xp_22_3
 + xp_22_4 + xp_22_5 + xp_22_6 + xp_22_7 + xp_23_0 + xp_23_1 + xp_23_2
 + xp_23_3 + xp_23_4 + xp_23_5 + xp_23_6

Subject To
 r_1: 0 xp_0_0 <= 28.6290322580645
 r_2: + xp_23_5 + xp_22_3 + xp_18_2 + xp_5_2 + xp_2_3
 <= 27.9004491017964
 r_3: + xp_21_1 + xp_18_4 + xp_18_3 + xp_17_5 + xp_6_1
 <= 29.7154017857143
 r_4: + xp_17_1 + xp_15_0 <= 30
 r_5: + xp_18_0 <= 27.2080291970803
 r_6: + xp_18_1 <= 28.8106343283582
 r_7: + xp_20_3 <= 28.6290322580645
 r_8: + xp_23_2 + xp_22_5 + xp_11_2 + xp_5_1 + xp_3_3 + xp_3_2 + xp_2_2
 <= 27.9004491017964
 r_9: + xp_23_3 + xp_22_6 + xp_11_1 + xp_6_2 + xp_3_4 + xp_3_1
 <= 29.7154017857143
 r_10: + xp_3_0 <= 28.8106343283582
 r_11: + xp_18_4 + xp_18_1 + xp_11_3 + xp_0_7 <= 27.2080291970803
 r_12: + xp_11_0 <= 28.8106343283582
 r_13: 0 xp_0_0 <= 28.8106343283582
 r_14: + xp_21_2 + xp_19_5 + xp_14_0 + xp_0_6 + xp_0_1
 <= 27.9004491017964
 r_15: + xp_21_0 + xp_19_3 <= 29.7154017857143
 r_16: + xp_22_1 + xp_21_4 + xp_19_6 + xp_14_2 + xp_0_5 + xp_0_3
 + xp_0_2 <= 28.6290322580645
 r_17: + xp_0_0 <= 27.2080291970803
 r_18: + xp_21_1 + xp_4_0 <= 28.6290322580645
 r_19: + xp_19_0 + xp_0_7 <= 28.6290322580645
 r_20: + xp_21_3 + xp_19_4 + xp_19_2 + xp_19_1 + xp_14_1 + xp_0_8
 + xp_0_4 <= 28.6290322580645
 r_21: + xp_20_1 <= 27.9004491017964
 r_22: + xp_21_2 + xp_7_1 <= 29.7154017857143
 r_23: + xp_22_5 + xp_22_3 + xp_22_2 + xp_17_3 + xp_3_2
 <= 27.9004491017964
 r_24: + xp_23_5 + xp_23_4 + xp_23_2 + xp_22_7 + xp_3_3 + xp_0_6
 + xp_0_4 <= 28.8106343283582
 r_25: 0 xp_0_0 <= 27.9004491017964
 r_26: + xp_18_2 + xp_0_8 + xp_0_1 <= 27.2080291970803
 r_27: + xp_11_2 <= 27.9004491017964
 r_28: + xp_19_5 + xp_19_2 + xp_10_1 <= 27.9004491017964
 r_29: + xp_20_2 <= 29.7154017857143
 r_30: + xp_2_0 <= 29.7154017857143
 r_31: + xp_23_3 + xp_22_6 + xp_18_3 + xp_17_5 + xp_6_2 + xp_6_1
 + xp_3_4 + xp_3_1 + xp_2_4 <= 28.8106343283582
 r_32: + xp_2_1 <= 29.7154017857143
 r_33: + xp_11_1 + xp_2_3 <= 29.7154017857143
 r_34: + xp_19_4 + xp_19_3 + xp_18_4 + xp_2_2 <= 29.7154017857143
 r_35: 0 xp_0_0 <= 28.6290322580645
 r_36: + xp_14_2 + xp_9_0 <= 27.9004491017964
 r_37: + xp_21_4 + xp_13_1 + xp_8_1 + xp_0_3 <= 28.8106343283582
 r_38: + xp_23_6 + xp_1_1 <= 30
 r_39: + xp_19_6 + xp_17_3 + xp_17_2 + xp_3_2 + xp_0_5 <= 30
 r_40: + xp_0_2 <= 27.2080291970803
 r_41: + xp_12_0 + xp_2_4 <= 28.8106343283582
 r_42: + xp_21_4 <= 28.8106343283582
 r_43: + xp_16_0 <= 28.8106343283582
 r_44: + xp_23_5 + xp_23_4 + xp_23_3 + xp_23_2 + xp_23_1 + xp_22_7
 + xp_22_6 + xp_16_1 + xp_3_4 + xp_1_2 <= 28.8106343283582
 r_45: + xp_17_5 + xp_17_4 + xp_3_3 + xp_3_1 <= 28.8106343283582
 r_46: + xp_18_3 + xp_0_6 + xp_0_4 + xp_0_3 <= 27.2080291970803
 r_47: + xp_22_7 + xp_22_6 + xp_22_4 + xp_16_1 + xp_13_1 <= 30
 r_48: + xp_13_0 <= 28.8106343283582
 r_49: + xp_3_4 <= 30
 r_50: 0 xp_0_0 <= 27.2080291970803
 r_51: + xp_8_1 + xp_1_1 <= 30
 r_52: + xp_8_0 + xp_1_2 <= 28.8106343283582
 r_53: + xp_1_0 <= 30
 r_54: + xp_0_5 <= 27.2080291970803
 r_55: 0 xp_0_0 <= 30
 r_56: + xp_19_6 <= 28.8106343283582
 r_57: + xp_22_1 <= 27.2080291970803
 r_58: + xp_23_4 + xp_22_7 + xp_22_2 + xp_17_3 + xp_5_0
 <= 27.2080291970803
 r_59: + xp_23_6 + xp_22_0 + xp_17_2 <= 27.2080291970803
 r_60: + xp_23_1 + xp_17_4 + xp_6_0 <= 27.2080291970803
 r_61: + xp_23_0 + xp_22_4 <= 27.2080291970803
 r_62: + xp_17_0 <= 27.2080291970803
 r_63: + xp_23_5 + xp_22_3 + xp_17_5 + xp_17_1 + xp_11_3 + xp_6_1
 + xp_5_2 <= 27.2080291970803
 r_64: + xp_23_3 + xp_23_2 + xp_22_6 + xp_22_5 + xp_6_2 + xp_5_1
 <= 27.2080291970803
 r_65: + xp_20_1 + xp_19_2 + xp_14_1 + xp_10_1 + xp_7_1 + xp_2_1
 + xp_0_8 + xp_0_4 <= 27.9004491017964
 r_66: + xp_21_3 + xp_20_2 + xp_19_4 + xp_7_0 <= 29.7154017857143
 r_67: + xp_20_3 + xp_19_1 + xp_10_0 <= 28.8106343283582
 r_68: + xp_20_0 <= 28.6290322580645

Bounds
 0 <= xp_0_0 <= 27.8325470590784
 0 <= xp_0_1 <= 8.81595579467309
 0 <= xp_0_2 <= 12.2687524918284
 0 <= xp_0_3 <= 1.94547432090625
 0 <= xp_0_4 <= 3.73319402007885
 0 <= xp_0_5 <= 3.8909486418125
 0 <= xp_0_6 <= 2.54138088729712
 0 <= xp_0_7 <= 0.595906566390868
 0 <= xp_0_8 <= 1.19181313278174
 0 <= xp_1_0 <= 18.9639778568707
 0 <= xp_1_1 <= 15.639726429995
 0 <= xp_1_2 <= 0.566697214936781
 0 <= xp_2_0 <= 23.5267921644595
 0 <= xp_2_1 <= 0.531643658622692
 0 <= xp_2_2 <= 1.94547432090625
 0 <= xp_2_3 <= 6.19862358988779
 0 <= xp_2_4 <= 2.47711797952894
 0 <= xp_3_0 <= 26.360293802938
 0 <= xp_3_1 <= 4.08372958321974
 0 <= xp_3_2 <= 0.356375877052249
 0 <= xp_3_3 <= 1.06912763115675
 0 <= xp_3_4 <= 0.356375877052249
 0 <= xp_4_0 <= 26.173322047853
 0 <= xp_5_0 <= 11.2171380205084
 0 <= xp_5_1 <= 9.34761501709034
 0 <= xp_5_2 <= 5.60856901025421
 0 <= xp_6_0 <= 16.8257070307626
 0 <= xp_6_1 <= 3.36514140615252
 0 <= xp_6_2 <= 3.36514140615252
 0 <= xp_7_0 <= 19.349563085377
 0 <= xp_7_1 <= 3.22492718089617
 0 <= xp_8_0 <= 18.835444259437
 0 <= xp_8_1 <= 1.448880327649
 0 <= xp_9_0 <= 18.8120752218943
 0 <= xp_10_0 <= 17.4683555631876
 0 <= xp_10_1 <= 1.34371965870674
 0 <= xp_11_0 <= 25.2911661717812
 0 <= xp_11_1 <= 13.6183202463437
 0 <= xp_11_2 <= 11.6728459254375
 0 <= xp_11_3 <= 3.8909486418125
 0 <= xp_12_0 <= 17.6669923823008
 0 <= xp_13_0 <= 13.4956191809242
 0 <= xp_13_1 <= 3.68062341297932
 0 <= xp_14_0 <= 10.5160668942266
 0 <= xp_14_1 <= 4.67380750854517
 0 <= xp_14_2 <= 1.16845187713629
 0 <= xp_15_0 <= 16.194743017109
 0 <= xp_16_0 <= 14.4303806826332
 0 <= xp_16_1 <= 1.11002928327948
 0 <= xp_17_0 <= 26.5939880693139
 0 <= xp_17_1 <= 3.90846569259794
 0 <= xp_17_2 <= 5.21128759013058
 0 <= xp_17_3 <= 2.60564379506529
 0 <= xp_17_4 <= 4.55111811597154
 0 <= xp_17_5 <= 2.60564379506529
 0 <= xp_18_0 <= 21.7565739522778
 0 <= xp_18_1 <= 14.7575433172827
 0 <= xp_18_2 <= 3.8909486418125
 0 <= xp_18_3 <= 1.16260767227629
 0 <= xp_18_4 <= 1.94547432090625
 0 <= xp_19_0 <= 27.5462744037056
 0 <= xp_19_1 <= 2.2551082319244
 0 <= xp_19_2 <= 4.51021646384881
 0 <= xp_19_3 <= 5.32813666879285
 0 <= xp_19_4 <= 1.1275541159622
 0 <= xp_19_5 <= 1.1275541159622
 0 <= xp_19_6 <= 1.1275541159622
 0 <= xp_20_0 <= 27.429429215992
 0 <= xp_20_1 <= 6.41478913263232
 0 <= xp_20_2 <= 3.01460584301164
 0 <= xp_20_3 <= 5.34565761052694
 0 <= xp_21_0 <= 23.2814211612095
 0 <= xp_21_1 <= 3.82667795214704
 0 <= xp_21_2 <= 4.70300907810197
 0 <= xp_21_3 <= 2.82180544686119
 0 <= xp_21_4 <= 5.77215227305329
 0 <= xp_22_0 <= 20.8042953997833
 0 <= xp_22_1 <= 1.64751325581353
 0 <= xp_22_2 <= 9.42941053943853
 0 <= xp_22_3 <= 3.59298757671978
 0 <= xp_22_4 <= 0.823756627906766
 0 <= xp_22_5 <= 0.823756627906766
 0 <= xp_22_6 <= 0.823756627906766
 0 <= xp_22_7 <= 0.823756627906766
 0 <= xp_23_0 <= 26.640718362502
 0 <= xp_23_1 <= 4.41674420462655
 0 <= xp_23_2 <= 0.823756627906766
 0 <= xp_23_3 <= 1.64751325581353
 0 <= xp_23_4 <= 1.64751325581353
 0 <= xp_23_5 <= 2.76923094881301
 0 <= xp_23_6 <= 0.823756627906766

End
